NAME 
ROWS
 N  OBJ
 L  R0      
 E  R1      
 E  R2      
 E  R3      
 E  R4      
 E  R5      
 E  R6      
 E  R7      
 E  R8      
 E  R9      
 E  R10     
COLUMNS
    MARKER    'MARKER'                 'INTORG'
    I0(7)     OBJ       -121
    I0(7)     R0        2
    I0(7)     R1        8
    I0(7)     R2        3
    I0(7)     R3        4
    I0(7)     R4        3
    I0(7)     R6        15
    I0(7)     R10       1
    I1(7)     OBJ       68
    I1(7)     R0        -99
    I1(7)     R1        13
    I1(7)     R2        4
    I1(7)     R3        7
    I1(7)     R4        5
    I1(7)     R6        4
    I1(7)     R10       1
    I2(4)     OBJ       -191
    I2(4)     R0        48
    I2(4)     R2        14
    I2(4)     R6        11
    I2(4)     R10       1
    I3(6)     OBJ       -122
    I3(6)     R0        187
    I3(6)     R1        12
    I3(6)     R3        3
    I3(6)     R4        13
    I3(6)     R5        17
    I3(6)     R10       1
    I4(5)     OBJ       57
    I4(5)     R0        187
    I4(5)     R2        18
    I4(5)     R5        1
    I4(5)     R6        16
    I4(5)     R10       1
    I5(5)     OBJ       -104
    I5(5)     R0        177
    I5(5)     R1        17
    I5(5)     R4        18
    I5(5)     R5        7
    I5(5)     R10       1
    MARKER    'MARKER'                 'INTEND'
    C6(4)     OBJ       -2
    C6(4)     R0        9
    C6(4)     R3        14
    C6(4)     R4        15
    C6(4)     R7        1
    C7(4)     OBJ       -6
    C7(4)     R0        6
    C7(4)     R2        11
    C7(4)     R3        -1
    C7(4)     R8        16
    C8(3)     OBJ       8
    C8(3)     R0        -10
    C8(3)     R7        8
    C8(3)     R9        15
    C9(5)     OBJ       -10
    C9(5)     R0        -1
    C9(5)     R1        1
    C9(5)     R4        14
    C9(5)     R7        3
    C9(5)     R9        15
    C10(1)    R1        1
    C11(1)    R2        1
    C12(1)    R3        1
    C13(1)    R4        1
    C14(1)    R5        1
    C15(1)    R6        1
    C16(1)    R7        1
    C17(1)    R8        1
    C18(1)    R9        1
    C19(1)    R10       1
RHS
    RHS1      R0        8.1232142857142861e+01
    RHS1      R1        52
    RHS1      R2        95
    RHS1      R3        64
    RHS1      R4        54
    RHS1      R5        88
    RHS1      R6        93
    RHS1      R7        97
    RHS1      R8        93
    RHS1      R9        63
    RHS1      R10       2
BOUNDS
 UP BND1      I0(7)     1
 UP BND1      I1(7)     1
 UP BND1      I2(4)     1
 UP BND1      I3(6)     1
 UP BND1      I4(5)     1
 UP BND1      I5(5)     1
ENDATA
